
;this file is automatically generated: Mon Mar 14 11:45:55 GMT 2022

;declarations generated

(declare-fun oclExcludes ( Int Int) Bool)
(declare-fun Cardinality ( Int) Int)
(declare-fun type_d01e99f8_b59c_44fc_9b74_dab42019ae25_B ( Int) Bool)
(declare-fun type_d01e99f8_b59c_44fc_9b74_dab42019ae25_A ( Int) Bool)
(declare-fun oclSelect ( Int Bool) Int)
(declare-fun obj_75b4ca41_2d1e_438b_869f_5a6153ef8d79 ( Int) Int)
(declare-fun container_ ( Int) Int)
(declare-fun oclIncludes ( Int Int) Bool)
(declare-fun ObjAt ( Int Int) Int)

;formula(s) generated
(assert (! (forall ((v Int)) (=> ( type_d01e99f8_b59c_44fc_9b74_dab42019ae25_A ( obj_75b4ca41_2d1e_438b_869f_5a6153ef8d79 v )  )  (>= ( Cardinality ( container_ ( obj_75b4ca41_2d1e_438b_869f_5a6153ef8d79 v )  )  )  1))):named l0))
(assert (! (exists ((o Int)) (and ( type_d01e99f8_b59c_44fc_9b74_dab42019ae25_B ( obj_75b4ca41_2d1e_438b_869f_5a6153ef8d79 o )  )  ( type_d01e99f8_b59c_44fc_9b74_dab42019ae25_A ( obj_75b4ca41_2d1e_438b_869f_5a6153ef8d79 o )  ) )):named c1))

 ;end of formula 